4 
5  01 21 37 52 
6  10 24 39 54 
7  09 24 39 54 
8  09 24 39 54 
9  09 24 39 54 
10  09 24 39 54 
11  09 24 39 54 
12  09 24 39 54 
13  09 24 39 54 
14  09 24 39 54 
15  09 24 39 54 
16  09 24 39 54 
17  09 24 39 54 
18  09 24 39 54 
19  09 24 39 54 
20  09 24 36 51 
21  06 21 36 51 
22  06 21 36 52 
23  08 
0 
